NAME : mr57
COMMENT : 57-city problem (DISC)
TYPE : TSP
DIMENSION : 57
EDGE_WEIGHT_TYPE : EUC_2D
NODE_COORD_SECTION
1 9 93
2 24 78
3 42 65
4 32 29
5 57 67
6 55 14
7 81 50
8 92 65
9 53 94
10 43 100
11 8 81
12 90 46
13 43 70
14 59 71
15 22 38
16 45 59
17 47 63
18 11 12
19 93 67
20 17 58
21 88 32
22 6 40
23 100 42
24 11 93
25 41 31
26 8 68
27 2 26
28 73 13
29 5 20
30 2 86
31 9 31
32 29 56
33 43 96
34 2 89
35 47 46
36 67 17
37 68 30
38 80 54
39 9 77
40 90 89
41 79 57
42 67 48
43 86 77
44 55 82
45 20 15
46 54 68
47 51 59
48 28 37
49 67 14
50 74 86
51 70 28
52 60 43
53 20 74
54 66 100
55 31 96
56 37 36
57 29 48
EOF
